(set-info :smt-lib-version 2.6)
(set-logic UF)
(set-info :source |Benchmarks from the paper: "Extending Sledgehammer with SMT Solvers" by Jasmin Blanchette, Sascha Bohme, and Lawrence C. Paulson, CADE 2011.  Translated to SMT2 by Andrew Reynolds and Morgan Deters.|)
(set-info :category "industrial")
(set-info :status unsat)
(declare-sort S1 0)
(declare-sort S2 0)
(declare-sort S3 0)
(declare-sort S4 0)
(declare-sort S5 0)
(declare-sort S6 0)
(declare-sort S7 0)
(declare-sort S8 0)
(declare-sort S9 0)
(declare-sort S10 0)
(declare-sort S11 0)
(declare-sort S12 0)
(declare-sort S13 0)
(declare-sort S14 0)
(declare-sort S15 0)
(declare-sort S16 0)
(declare-sort S17 0)
(declare-sort S18 0)
(declare-sort S19 0)
(declare-sort S20 0)
(declare-sort S21 0)
(declare-sort S22 0)
(declare-sort S23 0)
(declare-fun f1 () S1)
(declare-fun f2 () S1)
(declare-fun f3 () S1)
(declare-fun f4 () S3)
(declare-fun f5 (S4 S2) S3)
(declare-fun f6 (S5 S2) S4)
(declare-fun f7 () S5)
(declare-fun f8 (S6 S3) S2)
(declare-fun f9 () S6)
(declare-fun f10 () S6)
(declare-fun f11 (S7 S3) S8)
(declare-fun f12 () S7)
(declare-fun f13 () S8)
(declare-fun f14 () S7)
(declare-fun f15 () S9)
(declare-fun f16 () S3)
(declare-fun f17 () S2)
(declare-fun f18 (S6) S1)
(declare-fun f19 (S10 S3) S3)
(declare-fun f20 (S11 S3) S10)
(declare-fun f21 () S11)
(declare-fun f22 (S12 S2) S2)
(declare-fun f23 (S13 S2) S12)
(declare-fun f24 () S13)
(declare-fun f25 (S14 S1) S8)
(declare-fun f26 () S14)
(declare-fun f27 (S16 S15) S8)
(declare-fun f28 () S16)
(declare-fun f29 (S18 S17) S8)
(declare-fun f30 () S18)
(declare-fun f31 () S10)
(declare-fun f32 () S12)
(declare-fun f33 (S19 S2) S10)
(declare-fun f34 () S19)
(declare-fun f35 () S13)
(declare-fun f36 () S10)
(declare-fun f37 (S20 S9) S9)
(declare-fun f38 (S21 S9) S20)
(declare-fun f39 () S21)
(declare-fun f40 () S20)
(declare-fun f41 (S22 S8) S8)
(declare-fun f42 (S23 S8) S22)
(declare-fun f43 () S23)
(declare-fun f44 () S23)
(declare-fun f45 () S21)
(declare-fun f46 () S11)
(declare-fun f47 () S13)
(assert (not (= f1 f2)))
(assert (not (= f3 f1)))
(assert (forall ((?v0 S2) (?v1 S2)) (=> (= f4 (f5 (f6 f7 ?v0) ?v1)) (= f3 f1))))
(assert (forall ((?v0 S2) (?v1 S2) (?v2 S2) (?v3 S2)) (= (= (f5 (f6 f7 ?v0) ?v1) (f5 (f6 f7 ?v2) ?v3)) (and (= ?v0 ?v2) (= ?v1 ?v3)))))
(assert (forall ((?v0 S3)) (=> (forall ((?v1 S2) (?v2 S2)) (=> (= ?v0 (f5 (f6 f7 ?v1) ?v2)) false)) false)))
(assert (forall ((?v0 S2) (?v1 S2)) (= (f8 f9 (f5 (f6 f7 ?v0) ?v1)) ?v1)))
(assert (forall ((?v0 S2) (?v1 S2)) (= (f8 f10 (f5 (f6 f7 ?v0) ?v1)) ?v0)))
(assert (forall ((?v0 S2) (?v1 S2)) (= (f11 f12 (f5 (f6 f7 ?v0) ?v1)) f13)))
(assert (forall ((?v0 S2) (?v1 S2)) (= (f11 f14 (f5 (f6 f7 ?v0) ?v1)) f13)))
(assert (forall ((?v0 S3) (?v1 S3)) (= (= ?v0 ?v1) (and (= (f8 f10 ?v0) (f8 f10 ?v1)) (= (f8 f9 ?v0) (f8 f9 ?v1))))))
(assert (forall ((?v0 S3)) (= (f5 (f6 f7 (f8 f10 ?v0)) (f8 f9 ?v0)) ?v0)))
(assert (forall ((?v0 S3) (?v1 S3)) (=> (= (f8 f10 ?v0) (f8 f10 ?v1)) (=> (= (f8 f9 ?v0) (f8 f9 ?v1)) (= ?v0 ?v1)))))
(assert (forall ((?v0 S9)) (= (= f15 ?v0) (= ?v0 f15))))
(assert (forall ((?v0 S8)) (= (= f13 ?v0) (= ?v0 f13))))
(assert (forall ((?v0 S3)) (= (= f16 ?v0) (= ?v0 f16))))
(assert (forall ((?v0 S2)) (= (= f17 ?v0) (= ?v0 f17))))
(assert (= (f18 f9) f1))
(assert (= (f18 f10) f1))
(assert (forall ((?v0 S3) (?v1 S3)) (= (f19 (f20 f21 ?v0) ?v1) (f5 (f6 f7 (f22 (f23 f24 (f8 f10 ?v0)) (f8 f10 ?v1))) (f22 (f23 f24 (f8 f9 ?v0)) (f8 f9 ?v1))))))
(assert (= (f25 f26 f1) f13))
(assert (= (f25 f26 f2) f13))
(assert (forall ((?v0 S15)) (= (f27 f28 ?v0) f13)))
(assert (forall ((?v0 S17)) (= (f29 f30 ?v0) f13)))
(assert (forall ((?v0 S3)) (= (f19 f31 ?v0) (f5 (f6 f7 (f8 f10 ?v0)) (f22 f32 (f8 f9 ?v0))))))
(assert (forall ((?v0 S2) (?v1 S3)) (let ((?v_0 (f23 f35 ?v0))) (= (f19 (f33 f34 ?v0) ?v1) (f5 (f6 f7 (f22 ?v_0 (f8 f10 ?v1))) (f22 ?v_0 (f8 f9 ?v1)))))))
(assert (forall ((?v0 S3)) (= (f19 f36 ?v0) (f5 (f6 f7 (f22 f32 (f8 f10 ?v0))) (f22 f32 (f8 f9 ?v0))))))
(assert (= (f19 f31 f16) f16))
(assert (forall ((?v0 S3)) (= (f19 f31 (f19 f31 ?v0)) ?v0)))
(assert (forall ((?v0 S3)) (= (f19 f31 (f19 f36 ?v0)) (f19 f36 (f19 f31 ?v0)))))
(assert (forall ((?v0 S2) (?v1 S3)) (let ((?v_0 (f33 f34 ?v0))) (= (f19 f31 (f19 ?v_0 ?v1)) (f19 ?v_0 (f19 f31 ?v1))))))
(assert (forall ((?v0 S3) (?v1 S3)) (= (f19 f31 (f19 (f20 f21 ?v0) ?v1)) (f19 (f20 f21 (f19 f31 ?v0)) (f19 f31 ?v1)))))
(assert (forall ((?v0 S9)) (= (f37 (f38 f39 ?v0) (f37 f40 ?v0)) f15)))
(assert (forall ((?v0 S3)) (= (f19 (f20 f21 ?v0) (f19 f36 ?v0)) f16)))
(assert (forall ((?v0 S2)) (= (f22 (f23 f24 ?v0) (f22 f32 ?v0)) f17)))
(assert (forall ((?v0 S9) (?v1 S9)) (= (= ?v0 (f37 f40 ?v1)) (= (f37 (f38 f39 ?v0) ?v1) f15))))
(assert (forall ((?v0 S3) (?v1 S3)) (= (= ?v0 (f19 f36 ?v1)) (= (f19 (f20 f21 ?v0) ?v1) f16))))
(assert (forall ((?v0 S2) (?v1 S2)) (= (= ?v0 (f22 f32 ?v1)) (= (f22 (f23 f24 ?v0) ?v1) f17))))
(assert (forall ((?v0 S3)) (= (= (f19 f31 ?v0) f16) (= ?v0 f16))))
(assert (forall ((?v0 S9)) (= (f37 (f38 f39 (f37 f40 ?v0)) ?v0) f15)))
(assert (forall ((?v0 S3)) (= (f19 (f20 f21 (f19 f36 ?v0)) ?v0) f16)))
(assert (forall ((?v0 S2)) (= (f22 (f23 f24 (f22 f32 ?v0)) ?v0) f17)))
(assert (forall ((?v0 S9)) (= (f37 (f38 f39 (f37 f40 ?v0)) ?v0) f15)))
(assert (forall ((?v0 S3)) (= (f19 (f20 f21 (f19 f36 ?v0)) ?v0) f16)))
(assert (forall ((?v0 S2)) (= (f22 (f23 f24 (f22 f32 ?v0)) ?v0) f17)))
(assert (forall ((?v0 S3) (?v1 S3)) (= (= (f19 f31 ?v0) (f19 f31 ?v1)) (= ?v0 ?v1))))
(assert (forall ((?v0 S9) (?v1 S9)) (=> (= (f37 (f38 f39 ?v0) ?v1) f15) (= (f37 f40 ?v0) ?v1))))
(assert (forall ((?v0 S3) (?v1 S3)) (=> (= (f19 (f20 f21 ?v0) ?v1) f16) (= (f19 f36 ?v0) ?v1))))
(assert (forall ((?v0 S2) (?v1 S2)) (=> (= (f22 (f23 f24 ?v0) ?v1) f17) (= (f22 f32 ?v0) ?v1))))
(assert (forall ((?v0 S8) (?v1 S8) (?v2 S8)) (=> (= (f41 (f42 f43 ?v0) ?v1) (f41 (f42 f43 ?v2) ?v1)) (= ?v0 ?v2))))
(assert (forall ((?v0 S9) (?v1 S9) (?v2 S9)) (=> (= (f37 (f38 f39 ?v0) ?v1) (f37 (f38 f39 ?v2) ?v1)) (= ?v0 ?v2))))
(assert (forall ((?v0 S3) (?v1 S3) (?v2 S3)) (=> (= (f19 (f20 f21 ?v0) ?v1) (f19 (f20 f21 ?v2) ?v1)) (= ?v0 ?v2))))
(assert (forall ((?v0 S2) (?v1 S2) (?v2 S2)) (=> (= (f22 (f23 f24 ?v0) ?v1) (f22 (f23 f24 ?v2) ?v1)) (= ?v0 ?v2))))
(assert (forall ((?v0 S8) (?v1 S8) (?v2 S8)) (let ((?v_0 (f42 f43 ?v0))) (=> (= (f41 ?v_0 ?v1) (f41 ?v_0 ?v2)) (= ?v1 ?v2)))))
(assert (forall ((?v0 S9) (?v1 S9) (?v2 S9)) (let ((?v_0 (f38 f39 ?v0))) (=> (= (f37 ?v_0 ?v1) (f37 ?v_0 ?v2)) (= ?v1 ?v2)))))
(assert (forall ((?v0 S3) (?v1 S3) (?v2 S3)) (let ((?v_0 (f20 f21 ?v0))) (=> (= (f19 ?v_0 ?v1) (f19 ?v_0 ?v2)) (= ?v1 ?v2)))))
(assert (forall ((?v0 S2) (?v1 S2) (?v2 S2)) (let ((?v_0 (f23 f24 ?v0))) (=> (= (f22 ?v_0 ?v1) (f22 ?v_0 ?v2)) (= ?v1 ?v2)))))
(assert (forall ((?v0 S8) (?v1 S8) (?v2 S8)) (let ((?v_0 (f42 f43 ?v0))) (=> (= (f41 ?v_0 ?v1) (f41 ?v_0 ?v2)) (= ?v1 ?v2)))))
(assert (forall ((?v0 S9) (?v1 S9) (?v2 S9)) (let ((?v_0 (f38 f39 ?v0))) (=> (= (f37 ?v_0 ?v1) (f37 ?v_0 ?v2)) (= ?v1 ?v2)))))
(assert (forall ((?v0 S3) (?v1 S3) (?v2 S3)) (let ((?v_0 (f20 f21 ?v0))) (=> (= (f19 ?v_0 ?v1) (f19 ?v_0 ?v2)) (= ?v1 ?v2)))))
(assert (forall ((?v0 S2) (?v1 S2) (?v2 S2)) (let ((?v_0 (f23 f24 ?v0))) (=> (= (f22 ?v_0 ?v1) (f22 ?v_0 ?v2)) (= ?v1 ?v2)))))
(assert (forall ((?v0 S8) (?v1 S8) (?v2 S8)) (= (= (f41 (f42 f43 ?v0) ?v1) (f41 (f42 f43 ?v2) ?v1)) (= ?v0 ?v2))))
(assert (forall ((?v0 S9) (?v1 S9) (?v2 S9)) (= (= (f37 (f38 f39 ?v0) ?v1) (f37 (f38 f39 ?v2) ?v1)) (= ?v0 ?v2))))
(assert (forall ((?v0 S3) (?v1 S3) (?v2 S3)) (= (= (f19 (f20 f21 ?v0) ?v1) (f19 (f20 f21 ?v2) ?v1)) (= ?v0 ?v2))))
(assert (forall ((?v0 S2) (?v1 S2) (?v2 S2)) (= (= (f22 (f23 f24 ?v0) ?v1) (f22 (f23 f24 ?v2) ?v1)) (= ?v0 ?v2))))
(assert (forall ((?v0 S8) (?v1 S8) (?v2 S8)) (let ((?v_0 (f42 f43 ?v0))) (= (= (f41 ?v_0 ?v1) (f41 ?v_0 ?v2)) (= ?v1 ?v2)))))
(assert (forall ((?v0 S9) (?v1 S9) (?v2 S9)) (let ((?v_0 (f38 f39 ?v0))) (= (= (f37 ?v_0 ?v1) (f37 ?v_0 ?v2)) (= ?v1 ?v2)))))
(assert (forall ((?v0 S3) (?v1 S3) (?v2 S3)) (let ((?v_0 (f20 f21 ?v0))) (= (= (f19 ?v_0 ?v1) (f19 ?v_0 ?v2)) (= ?v1 ?v2)))))
(assert (forall ((?v0 S2) (?v1 S2) (?v2 S2)) (let ((?v_0 (f23 f24 ?v0))) (= (= (f22 ?v_0 ?v1) (f22 ?v_0 ?v2)) (= ?v1 ?v2)))))
(assert (forall ((?v0 S8) (?v1 S8) (?v2 S8)) (let ((?v_0 (f42 f44 ?v0))) (= (f41 (f42 f44 (f41 ?v_0 ?v1)) ?v2) (f41 ?v_0 (f41 (f42 f44 ?v1) ?v2))))))
(assert (forall ((?v0 S9) (?v1 S9) (?v2 S9)) (let ((?v_0 (f38 f45 ?v0))) (= (f37 (f38 f45 (f37 ?v_0 ?v1)) ?v2) (f37 ?v_0 (f37 (f38 f45 ?v1) ?v2))))))
(assert (forall ((?v0 S2) (?v1 S2) (?v2 S2)) (let ((?v_0 (f23 f35 ?v0))) (= (f22 (f23 f35 (f22 ?v_0 ?v1)) ?v2) (f22 ?v_0 (f22 (f23 f35 ?v1) ?v2))))))
(assert (forall ((?v0 S3) (?v1 S3) (?v2 S3)) (let ((?v_0 (f20 f46 ?v0))) (= (f19 (f20 f46 (f19 ?v_0 ?v1)) ?v2) (f19 ?v_0 (f19 (f20 f46 ?v1) ?v2))))))
(assert (forall ((?v0 S8) (?v1 S8) (?v2 S8)) (let ((?v_0 (f42 f43 ?v0))) (= (f41 (f42 f43 (f41 ?v_0 ?v1)) ?v2) (f41 ?v_0 (f41 (f42 f43 ?v1) ?v2))))))
(assert (forall ((?v0 S9) (?v1 S9) (?v2 S9)) (let ((?v_0 (f38 f39 ?v0))) (= (f37 (f38 f39 (f37 ?v_0 ?v1)) ?v2) (f37 ?v_0 (f37 (f38 f39 ?v1) ?v2))))))
(assert (forall ((?v0 S3) (?v1 S3) (?v2 S3)) (let ((?v_0 (f20 f21 ?v0))) (= (f19 (f20 f21 (f19 ?v_0 ?v1)) ?v2) (f19 ?v_0 (f19 (f20 f21 ?v1) ?v2))))))
(assert (forall ((?v0 S2) (?v1 S2) (?v2 S2)) (let ((?v_0 (f23 f24 ?v0))) (= (f22 (f23 f24 (f22 ?v_0 ?v1)) ?v2) (f22 ?v_0 (f22 (f23 f24 ?v1) ?v2))))))
(assert (forall ((?v0 S9) (?v1 S9)) (= (f37 (f38 f39 (f37 f40 ?v0)) (f37 (f38 f39 ?v0) ?v1)) ?v1)))
(assert (forall ((?v0 S3) (?v1 S3)) (= (f19 (f20 f21 (f19 f36 ?v0)) (f19 (f20 f21 ?v0) ?v1)) ?v1)))
(assert (forall ((?v0 S2) (?v1 S2)) (= (f22 (f23 f24 (f22 f32 ?v0)) (f22 (f23 f24 ?v0) ?v1)) ?v1)))
(assert (forall ((?v0 S9) (?v1 S9)) (= (= (f37 f40 ?v0) (f37 f40 ?v1)) (= ?v0 ?v1))))
(assert (forall ((?v0 S2) (?v1 S2)) (= (= (f22 f32 ?v0) (f22 f32 ?v1)) (= ?v0 ?v1))))
(assert (forall ((?v0 S3) (?v1 S3)) (= (= (f19 f36 ?v0) (f19 f36 ?v1)) (= ?v0 ?v1))))
(assert (forall ((?v0 S9) (?v1 S9)) (= (= (f37 f40 ?v0) ?v1) (= (f37 f40 ?v1) ?v0))))
(assert (forall ((?v0 S2) (?v1 S2)) (= (= (f22 f32 ?v0) ?v1) (= (f22 f32 ?v1) ?v0))))
(assert (forall ((?v0 S3) (?v1 S3)) (= (= (f19 f36 ?v0) ?v1) (= (f19 f36 ?v1) ?v0))))
(assert (forall ((?v0 S9) (?v1 S9)) (= (f37 (f38 f39 ?v0) (f37 (f38 f39 (f37 f40 ?v0)) ?v1)) ?v1)))
(assert (forall ((?v0 S3) (?v1 S3)) (= (f19 (f20 f21 ?v0) (f19 (f20 f21 (f19 f36 ?v0)) ?v1)) ?v1)))
(assert (forall ((?v0 S2) (?v1 S2)) (= (f22 (f23 f24 ?v0) (f22 (f23 f24 (f22 f32 ?v0)) ?v1)) ?v1)))
(assert (forall ((?v0 S9) (?v1 S9)) (= (= ?v0 (f37 f40 ?v1)) (= ?v1 (f37 f40 ?v0)))))
(assert (forall ((?v0 S2) (?v1 S2)) (= (= ?v0 (f22 f32 ?v1)) (= ?v1 (f22 f32 ?v0)))))
(assert (forall ((?v0 S3) (?v1 S3)) (= (= ?v0 (f19 f36 ?v1)) (= ?v1 (f19 f36 ?v0)))))
(assert (forall ((?v0 S9) (?v1 S9)) (= (f37 f40 (f37 (f38 f39 ?v0) ?v1)) (f37 (f38 f39 (f37 f40 ?v1)) (f37 f40 ?v0)))))
(assert (forall ((?v0 S3) (?v1 S3)) (= (f19 f36 (f19 (f20 f21 ?v0) ?v1)) (f19 (f20 f21 (f19 f36 ?v1)) (f19 f36 ?v0)))))
(assert (forall ((?v0 S2) (?v1 S2)) (= (f22 f32 (f22 (f23 f24 ?v0) ?v1)) (f22 (f23 f24 (f22 f32 ?v1)) (f22 f32 ?v0)))))
(assert (forall ((?v0 S9) (?v1 S9)) (= (f37 f40 (f37 (f38 f39 ?v0) ?v1)) (f37 (f38 f39 (f37 f40 ?v0)) (f37 f40 ?v1)))))
(assert (forall ((?v0 S3) (?v1 S3)) (= (f19 f36 (f19 (f20 f21 ?v0) ?v1)) (f19 (f20 f21 (f19 f36 ?v0)) (f19 f36 ?v1)))))
(assert (forall ((?v0 S2) (?v1 S2)) (= (f22 f32 (f22 (f23 f24 ?v0) ?v1)) (f22 (f23 f24 (f22 f32 ?v0)) (f22 f32 ?v1)))))
(assert (forall ((?v0 S9)) (= (f37 f40 (f37 f40 ?v0)) ?v0)))
(assert (forall ((?v0 S2)) (= (f22 f32 (f22 f32 ?v0)) ?v0)))
(assert (forall ((?v0 S3)) (= (f19 f36 (f19 f36 ?v0)) ?v0)))
(assert (forall ((?v0 S3)) (= (f8 f10 (f19 f36 ?v0)) (f22 f32 (f8 f10 ?v0)))))
(assert (forall ((?v0 S3)) (= (f8 f9 (f19 f36 ?v0)) (f22 f32 (f8 f9 ?v0)))))
(assert (forall ((?v0 S9)) (= (= (f37 f40 ?v0) ?v0) (= ?v0 f15))))
(assert (forall ((?v0 S2)) (= (= (f22 f32 ?v0) ?v0) (= ?v0 f17))))
(assert (forall ((?v0 S9)) (= (= (f37 f40 ?v0) f15) (= ?v0 f15))))
(assert (forall ((?v0 S3)) (= (= (f19 f36 ?v0) f16) (= ?v0 f16))))
(assert (forall ((?v0 S2)) (= (= (f22 f32 ?v0) f17) (= ?v0 f17))))
(assert (forall ((?v0 S9)) (= (= ?v0 (f37 f40 ?v0)) (= ?v0 f15))))
(assert (forall ((?v0 S2)) (= (= ?v0 (f22 f32 ?v0)) (= ?v0 f17))))
(assert (forall ((?v0 S9)) (= (= f15 (f37 f40 ?v0)) (= f15 ?v0))))
(assert (forall ((?v0 S3)) (= (= f16 (f19 f36 ?v0)) (= f16 ?v0))))
(assert (forall ((?v0 S2)) (= (= f17 (f22 f32 ?v0)) (= f17 ?v0))))
(assert (= (f37 f40 f15) f15))
(assert (= (f19 f36 f16) f16))
(assert (= (f22 f32 f17) f17))
(assert (forall ((?v0 S2) (?v1 S3)) (= (f8 f10 (f19 (f33 f34 ?v0) ?v1)) (f22 (f23 f35 ?v0) (f8 f10 ?v1)))))
(assert (forall ((?v0 S2) (?v1 S3)) (= (f8 f9 (f19 (f33 f34 ?v0) ?v1)) (f22 (f23 f35 ?v0) (f8 f9 ?v1)))))
(assert (forall ((?v0 S2) (?v1 S2)) (= (f19 f36 (f5 (f6 f7 ?v0) ?v1)) (f5 (f6 f7 (f22 f32 ?v0)) (f22 f32 ?v1)))))
(assert (forall ((?v0 S3)) (= (f8 f9 (f19 f31 ?v0)) (f22 f32 (f8 f9 ?v0)))))
(assert (forall ((?v0 S2) (?v1 S2) (?v2 S2)) (let ((?v_0 (f23 f35 ?v0))) (= (f19 (f33 f34 ?v0) (f5 (f6 f7 ?v1) ?v2)) (f5 (f6 f7 (f22 ?v_0 ?v1)) (f22 ?v_0 ?v2))))))
(assert (forall ((?v0 S3) (?v1 S3)) (= (f8 f10 (f19 (f20 f21 ?v0) ?v1)) (f22 (f23 f24 (f8 f10 ?v0)) (f8 f10 ?v1)))))
(assert (forall ((?v0 S9)) (= (f37 (f38 f39 ?v0) f15) ?v0)))
(assert (forall ((?v0 S8)) (= (f41 (f42 f43 ?v0) f13) ?v0)))
(assert (forall ((?v0 S3)) (= (f19 (f20 f21 ?v0) f16) ?v0)))
(assert (forall ((?v0 S2)) (= (f22 (f23 f24 ?v0) f17) ?v0)))
(assert (forall ((?v0 S9)) (= (f37 (f38 f39 ?v0) f15) ?v0)))
(assert (forall ((?v0 S8)) (= (f41 (f42 f43 ?v0) f13) ?v0)))
(assert (forall ((?v0 S3)) (= (f19 (f20 f21 ?v0) f16) ?v0)))
(assert (forall ((?v0 S2)) (= (f22 (f23 f24 ?v0) f17) ?v0)))
(assert (forall ((?v0 S9)) (= (= f15 (f37 (f38 f39 ?v0) ?v0)) (= ?v0 f15))))
(assert (forall ((?v0 S2)) (= (= f17 (f22 (f23 f24 ?v0) ?v0)) (= ?v0 f17))))
(assert (forall ((?v0 S9)) (= (f37 (f38 f39 f15) ?v0) ?v0)))
(assert (forall ((?v0 S8)) (= (f41 (f42 f43 f13) ?v0) ?v0)))
(assert (forall ((?v0 S3)) (= (f19 (f20 f21 f16) ?v0) ?v0)))
(assert (forall ((?v0 S2)) (= (f22 (f23 f24 f17) ?v0) ?v0)))
(assert (forall ((?v0 S9)) (= (f37 (f38 f39 f15) ?v0) ?v0)))
(assert (forall ((?v0 S8)) (= (f41 (f42 f43 f13) ?v0) ?v0)))
(assert (forall ((?v0 S3)) (= (f19 (f20 f21 f16) ?v0) ?v0)))
(assert (forall ((?v0 S2)) (= (f22 (f23 f24 f17) ?v0) ?v0)))
(assert (forall ((?v0 S3) (?v1 S3)) (= (f8 f9 (f19 (f20 f21 ?v0) ?v1)) (f22 (f23 f24 (f8 f9 ?v0)) (f8 f9 ?v1)))))
(assert (forall ((?v0 S2) (?v1 S2)) (let ((?v_0 (f6 f7 ?v0))) (= (f19 f31 (f5 ?v_0 ?v1)) (f5 ?v_0 (f22 f32 ?v1))))))
(assert (forall ((?v0 S2) (?v1 S2) (?v2 S2) (?v3 S2)) (= (f19 (f20 f21 (f5 (f6 f7 ?v0) ?v1)) (f5 (f6 f7 ?v2) ?v3)) (f5 (f6 f7 (f22 (f23 f24 ?v0) ?v2)) (f22 (f23 f24 ?v1) ?v3)))))
(assert (= (f8 f10 f16) f17))
(assert (= (f8 f9 f16) f17))
(assert (forall ((?v0 S2) (?v1 S2)) (= (= (f5 (f6 f7 ?v0) ?v1) f16) (and (= ?v0 f17) (= ?v1 f17)))))
(assert (= f16 (f5 (f6 f7 f17) f17)))
(assert (forall ((?v0 S3)) (= (f8 f10 (f19 f31 ?v0)) (f8 f10 ?v0))))
(assert (forall ((?v0 S2) (?v1 S2)) (= (f22 (f23 f47 (f22 f32 ?v0)) ?v1) (f22 f32 (f22 (f23 f47 ?v0) ?v1)))))
(assert (forall ((?v0 S2) (?v1 S3)) (= (f19 (f33 f34 (f22 f32 ?v0)) ?v1) (f19 f36 (f19 (f33 f34 ?v0) ?v1)))))
(assert (forall ((?v0 S2) (?v1 S2)) (= (f22 (f23 f47 (f22 f32 ?v0)) ?v1) (f22 f32 (f22 (f23 f47 ?v0) ?v1)))))
(assert (forall ((?v0 S2) (?v1 S3)) (= (f19 (f33 f34 (f22 f32 ?v0)) ?v1) (f19 f36 (f19 (f33 f34 ?v0) ?v1)))))
(assert (forall ((?v0 S2) (?v1 S2)) (= (f22 (f23 f47 (f22 f32 ?v0)) ?v1) (f22 f32 (f22 (f23 f47 ?v0) ?v1)))))
(assert (forall ((?v0 S2) (?v1 S3)) (= (f19 (f33 f34 (f22 f32 ?v0)) ?v1) (f19 f36 (f19 (f33 f34 ?v0) ?v1)))))
(assert (forall ((?v0 S2) (?v1 S2) (?v2 S3)) (= (f19 (f33 f34 (f22 (f23 f24 ?v0) ?v1)) ?v2) (f19 (f20 f21 (f19 (f33 f34 ?v0) ?v2)) (f19 (f33 f34 ?v1) ?v2)))))
(assert (forall ((?v0 S2) (?v1 S2) (?v2 S2)) (= (f22 (f23 f47 (f22 (f23 f24 ?v0) ?v1)) ?v2) (f22 (f23 f24 (f22 (f23 f47 ?v0) ?v2)) (f22 (f23 f47 ?v1) ?v2)))))
(assert (forall ((?v0 S2) (?v1 S2) (?v2 S3)) (= (f19 (f33 f34 (f22 (f23 f24 ?v0) ?v1)) ?v2) (f19 (f20 f21 (f19 (f33 f34 ?v0) ?v2)) (f19 (f33 f34 ?v1) ?v2)))))
(assert (forall ((?v0 S2) (?v1 S2) (?v2 S2)) (= (f22 (f23 f47 (f22 (f23 f24 ?v0) ?v1)) ?v2) (f22 (f23 f24 (f22 (f23 f47 ?v0) ?v2)) (f22 (f23 f47 ?v1) ?v2)))))
(assert (forall ((?v0 S2) (?v1 S2) (?v2 S3)) (= (f19 (f33 f34 (f22 (f23 f24 ?v0) ?v1)) ?v2) (f19 (f20 f21 (f19 (f33 f34 ?v0) ?v2)) (f19 (f33 f34 ?v1) ?v2)))))
(assert (forall ((?v0 S2) (?v1 S2) (?v2 S2)) (= (f22 (f23 f47 (f22 (f23 f24 ?v0) ?v1)) ?v2) (f22 (f23 f24 (f22 (f23 f47 ?v0) ?v2)) (f22 (f23 f47 ?v1) ?v2)))))
(assert (forall ((?v0 S9) (?v1 S9)) (= (= (f37 (f38 f39 ?v0) ?v1) f15) (= ?v1 (f37 f40 ?v0)))))
(assert (forall ((?v0 S3) (?v1 S3)) (= (= (f19 (f20 f21 ?v0) ?v1) f16) (= ?v1 (f19 f36 ?v0)))))
(assert (forall ((?v0 S2) (?v1 S2)) (= (= (f22 (f23 f24 ?v0) ?v1) f17) (= ?v1 (f22 f32 ?v0)))))
(assert (forall ((?v0 S9) (?v1 S9)) (= (= (f37 (f38 f39 (f37 (f38 f45 ?v0) ?v0)) (f37 (f38 f45 ?v1) ?v1)) f15) (and (= ?v0 f15) (= ?v1 f15)))))
(assert (forall ((?v0 S2) (?v1 S2)) (= (= (f22 (f23 f24 (f22 (f23 f35 ?v0) ?v0)) (f22 (f23 f35 ?v1) ?v1)) f17) (and (= ?v0 f17) (= ?v1 f17)))))
(assert (forall ((?v0 S9) (?v1 S9) (?v2 S9) (?v3 S9) (?v4 S9)) (let ((?v_0 (f38 f45 ?v0))) (=> (not (= ?v0 f15)) (=> (and (= ?v1 ?v2) (not (= ?v3 ?v4))) (not (= (f37 (f38 f39 ?v1) (f37 ?v_0 ?v3)) (f37 (f38 f39 ?v2) (f37 ?v_0 ?v4)))))))))
(assert (forall ((?v0 S8) (?v1 S8) (?v2 S8) (?v3 S8) (?v4 S8)) (let ((?v_0 (f42 f44 ?v0))) (=> (not (= ?v0 f13)) (=> (and (= ?v1 ?v2) (not (= ?v3 ?v4))) (not (= (f41 (f42 f43 ?v1) (f41 ?v_0 ?v3)) (f41 (f42 f43 ?v2) (f41 ?v_0 ?v4)))))))))
(assert (forall ((?v0 S3) (?v1 S3) (?v2 S3) (?v3 S3) (?v4 S3)) (let ((?v_0 (f20 f46 ?v0))) (=> (not (= ?v0 f16)) (=> (and (= ?v1 ?v2) (not (= ?v3 ?v4))) (not (= (f19 (f20 f21 ?v1) (f19 ?v_0 ?v3)) (f19 (f20 f21 ?v2) (f19 ?v_0 ?v4)))))))))
(assert (forall ((?v0 S2) (?v1 S2) (?v2 S2) (?v3 S2) (?v4 S2)) (let ((?v_0 (f23 f35 ?v0))) (=> (not (= ?v0 f17)) (=> (and (= ?v1 ?v2) (not (= ?v3 ?v4))) (not (= (f22 (f23 f24 ?v1) (f22 ?v_0 ?v3)) (f22 (f23 f24 ?v2) (f22 ?v_0 ?v4)))))))))
(assert (forall ((?v0 S2) (?v1 S2)) (= (= (f22 (f23 f24 ?v0) ?v1) f17) (= ?v1 (f22 f32 ?v0)))))
(assert (forall ((?v0 S2) (?v1 S2)) (= (f22 (f23 f47 ?v0) ?v1) (f22 (f23 f35 ?v0) ?v1))))
(assert (forall ((?v0 S3) (?v1 S3)) (= (f19 f31 (f19 (f20 f46 ?v0) ?v1)) (f19 (f20 f46 (f19 f31 ?v0)) (f19 f31 ?v1)))))
(assert (forall ((?v0 S3)) (= (f8 f9 (f19 (f20 f46 ?v0) (f19 f31 ?v0))) f17)))
(assert (forall ((?v0 S2) (?v1 S3)) (= (f8 f10 (f19 (f33 f34 ?v0) ?v1)) (f22 (f23 f47 ?v0) (f8 f10 ?v1)))))
(assert (forall ((?v0 S2) (?v1 S3)) (= (f8 f9 (f19 (f33 f34 ?v0) ?v1)) (f22 (f23 f47 ?v0) (f8 f9 ?v1)))))
(assert (forall ((?v0 S8) (?v1 S8)) (= (f41 (f42 f44 ?v0) ?v1) (f41 (f42 f44 ?v1) ?v0))))
(assert (forall ((?v0 S9) (?v1 S9)) (= (f37 (f38 f45 ?v0) ?v1) (f37 (f38 f45 ?v1) ?v0))))
(assert (forall ((?v0 S2) (?v1 S2)) (= (f22 (f23 f35 ?v0) ?v1) (f22 (f23 f35 ?v1) ?v0))))
(assert (forall ((?v0 S3) (?v1 S3)) (= (f19 (f20 f46 ?v0) ?v1) (f19 (f20 f46 ?v1) ?v0))))
(assert (forall ((?v0 S8) (?v1 S8) (?v2 S8)) (let ((?v_1 (f42 f44 ?v0)) (?v_0 (f42 f44 ?v1))) (= (f41 ?v_1 (f41 ?v_0 ?v2)) (f41 ?v_0 (f41 ?v_1 ?v2))))))
(assert (forall ((?v0 S9) (?v1 S9) (?v2 S9)) (let ((?v_1 (f38 f45 ?v0)) (?v_0 (f38 f45 ?v1))) (= (f37 ?v_1 (f37 ?v_0 ?v2)) (f37 ?v_0 (f37 ?v_1 ?v2))))))
(assert (forall ((?v0 S2) (?v1 S2) (?v2 S2)) (let ((?v_1 (f23 f35 ?v0)) (?v_0 (f23 f35 ?v1))) (= (f22 ?v_1 (f22 ?v_0 ?v2)) (f22 ?v_0 (f22 ?v_1 ?v2))))))
(assert (forall ((?v0 S3) (?v1 S3) (?v2 S3)) (let ((?v_1 (f20 f46 ?v0)) (?v_0 (f20 f46 ?v1))) (= (f19 ?v_1 (f19 ?v_0 ?v2)) (f19 ?v_0 (f19 ?v_1 ?v2))))))
(assert (forall ((?v0 S8) (?v1 S8) (?v2 S8)) (let ((?v_0 (f42 f44 ?v0))) (= (f41 ?v_0 (f41 (f42 f44 ?v1) ?v2)) (f41 (f42 f44 (f41 ?v_0 ?v1)) ?v2)))))
(assert (forall ((?v0 S9) (?v1 S9) (?v2 S9)) (let ((?v_0 (f38 f45 ?v0))) (= (f37 ?v_0 (f37 (f38 f45 ?v1) ?v2)) (f37 (f38 f45 (f37 ?v_0 ?v1)) ?v2)))))
(assert (forall ((?v0 S2) (?v1 S2) (?v2 S2)) (let ((?v_0 (f23 f35 ?v0))) (= (f22 ?v_0 (f22 (f23 f35 ?v1) ?v2)) (f22 (f23 f35 (f22 ?v_0 ?v1)) ?v2)))))
(assert (forall ((?v0 S3) (?v1 S3) (?v2 S3)) (let ((?v_0 (f20 f46 ?v0))) (= (f19 ?v_0 (f19 (f20 f46 ?v1) ?v2)) (f19 (f20 f46 (f19 ?v_0 ?v1)) ?v2)))))
(assert (forall ((?v0 S8) (?v1 S8) (?v2 S8)) (let ((?v_0 (f42 f44 ?v0))) (= (f41 (f42 f44 (f41 ?v_0 ?v1)) ?v2) (f41 ?v_0 (f41 (f42 f44 ?v1) ?v2))))))
(assert (forall ((?v0 S9) (?v1 S9) (?v2 S9)) (let ((?v_0 (f38 f45 ?v0))) (= (f37 (f38 f45 (f37 ?v_0 ?v1)) ?v2) (f37 ?v_0 (f37 (f38 f45 ?v1) ?v2))))))
(assert (forall ((?v0 S2) (?v1 S2) (?v2 S2)) (let ((?v_0 (f23 f35 ?v0))) (= (f22 (f23 f35 (f22 ?v_0 ?v1)) ?v2) (f22 ?v_0 (f22 (f23 f35 ?v1) ?v2))))))
(assert (forall ((?v0 S3) (?v1 S3) (?v2 S3)) (let ((?v_0 (f20 f46 ?v0))) (= (f19 (f20 f46 (f19 ?v_0 ?v1)) ?v2) (f19 ?v_0 (f19 (f20 f46 ?v1) ?v2))))))
(assert (forall ((?v0 S8) (?v1 S8) (?v2 S8)) (let ((?v_0 (f42 f44 ?v0))) (= (f41 (f42 f44 (f41 ?v_0 ?v1)) ?v2) (f41 (f42 f44 (f41 ?v_0 ?v2)) ?v1)))))
(assert (forall ((?v0 S9) (?v1 S9) (?v2 S9)) (let ((?v_0 (f38 f45 ?v0))) (= (f37 (f38 f45 (f37 ?v_0 ?v1)) ?v2) (f37 (f38 f45 (f37 ?v_0 ?v2)) ?v1)))))
(assert (forall ((?v0 S2) (?v1 S2) (?v2 S2)) (let ((?v_0 (f23 f35 ?v0))) (= (f22 (f23 f35 (f22 ?v_0 ?v1)) ?v2) (f22 (f23 f35 (f22 ?v_0 ?v2)) ?v1)))))
(assert (forall ((?v0 S3) (?v1 S3) (?v2 S3)) (let ((?v_0 (f20 f46 ?v0))) (= (f19 (f20 f46 (f19 ?v_0 ?v1)) ?v2) (f19 (f20 f46 (f19 ?v_0 ?v2)) ?v1)))))
(assert (forall ((?v0 S8) (?v1 S8) (?v2 S8) (?v3 S8)) (let ((?v_0 (f42 f44 ?v0)) (?v_1 (f41 (f42 f44 ?v2) ?v3))) (= (f41 (f42 f44 (f41 ?v_0 ?v1)) ?v_1) (f41 ?v_0 (f41 (f42 f44 ?v1) ?v_1))))))
(assert (forall ((?v0 S9) (?v1 S9) (?v2 S9) (?v3 S9)) (let ((?v_0 (f38 f45 ?v0)) (?v_1 (f37 (f38 f45 ?v2) ?v3))) (= (f37 (f38 f45 (f37 ?v_0 ?v1)) ?v_1) (f37 ?v_0 (f37 (f38 f45 ?v1) ?v_1))))))
(assert (forall ((?v0 S2) (?v1 S2) (?v2 S2) (?v3 S2)) (let ((?v_0 (f23 f35 ?v0)) (?v_1 (f22 (f23 f35 ?v2) ?v3))) (= (f22 (f23 f35 (f22 ?v_0 ?v1)) ?v_1) (f22 ?v_0 (f22 (f23 f35 ?v1) ?v_1))))))
(assert (forall ((?v0 S3) (?v1 S3) (?v2 S3) (?v3 S3)) (let ((?v_0 (f20 f46 ?v0)) (?v_1 (f19 (f20 f46 ?v2) ?v3))) (= (f19 (f20 f46 (f19 ?v_0 ?v1)) ?v_1) (f19 ?v_0 (f19 (f20 f46 ?v1) ?v_1))))))
(assert (forall ((?v0 S8) (?v1 S8) (?v2 S8) (?v3 S8)) (let ((?v_1 (f42 f44 (f41 (f42 f44 ?v0) ?v1))) (?v_0 (f42 f44 ?v2))) (= (f41 ?v_1 (f41 ?v_0 ?v3)) (f41 ?v_0 (f41 ?v_1 ?v3))))))
(assert (forall ((?v0 S9) (?v1 S9) (?v2 S9) (?v3 S9)) (let ((?v_1 (f38 f45 (f37 (f38 f45 ?v0) ?v1))) (?v_0 (f38 f45 ?v2))) (= (f37 ?v_1 (f37 ?v_0 ?v3)) (f37 ?v_0 (f37 ?v_1 ?v3))))))
(assert (forall ((?v0 S2) (?v1 S2) (?v2 S2) (?v3 S2)) (let ((?v_1 (f23 f35 (f22 (f23 f35 ?v0) ?v1))) (?v_0 (f23 f35 ?v2))) (= (f22 ?v_1 (f22 ?v_0 ?v3)) (f22 ?v_0 (f22 ?v_1 ?v3))))))
(assert (forall ((?v0 S3) (?v1 S3) (?v2 S3) (?v3 S3)) (let ((?v_1 (f20 f46 (f19 (f20 f46 ?v0) ?v1))) (?v_0 (f20 f46 ?v2))) (= (f19 ?v_1 (f19 ?v_0 ?v3)) (f19 ?v_0 (f19 ?v_1 ?v3))))))
(assert (forall ((?v0 S8) (?v1 S8) (?v2 S8) (?v3 S8)) (let ((?v_0 (f42 f44 ?v0))) (= (f41 (f42 f44 (f41 ?v_0 ?v1)) (f41 (f42 f44 ?v2) ?v3)) (f41 (f42 f44 (f41 ?v_0 ?v2)) (f41 (f42 f44 ?v1) ?v3))))))
(assert (forall ((?v0 S9) (?v1 S9) (?v2 S9) (?v3 S9)) (let ((?v_0 (f38 f45 ?v0))) (= (f37 (f38 f45 (f37 ?v_0 ?v1)) (f37 (f38 f45 ?v2) ?v3)) (f37 (f38 f45 (f37 ?v_0 ?v2)) (f37 (f38 f45 ?v1) ?v3))))))
(assert (forall ((?v0 S2) (?v1 S2) (?v2 S2) (?v3 S2)) (let ((?v_0 (f23 f35 ?v0))) (= (f22 (f23 f35 (f22 ?v_0 ?v1)) (f22 (f23 f35 ?v2) ?v3)) (f22 (f23 f35 (f22 ?v_0 ?v2)) (f22 (f23 f35 ?v1) ?v3))))))
(assert (forall ((?v0 S3) (?v1 S3) (?v2 S3) (?v3 S3)) (let ((?v_0 (f20 f46 ?v0))) (= (f19 (f20 f46 (f19 ?v_0 ?v1)) (f19 (f20 f46 ?v2) ?v3)) (f19 (f20 f46 (f19 ?v_0 ?v2)) (f19 (f20 f46 ?v1) ?v3))))))
(assert (forall ((?v0 S8) (?v1 S8)) (= (f41 (f42 f43 ?v0) ?v1) (f41 (f42 f43 ?v1) ?v0))))
(assert (forall ((?v0 S9) (?v1 S9)) (= (f37 (f38 f39 ?v0) ?v1) (f37 (f38 f39 ?v1) ?v0))))
(assert (forall ((?v0 S3) (?v1 S3)) (= (f19 (f20 f21 ?v0) ?v1) (f19 (f20 f21 ?v1) ?v0))))
(assert (forall ((?v0 S2) (?v1 S2)) (= (f22 (f23 f24 ?v0) ?v1) (f22 (f23 f24 ?v1) ?v0))))
(assert (forall ((?v0 S8) (?v1 S8) (?v2 S8)) (let ((?v_1 (f42 f43 ?v0)) (?v_0 (f42 f43 ?v1))) (= (f41 ?v_1 (f41 ?v_0 ?v2)) (f41 ?v_0 (f41 ?v_1 ?v2))))))
(assert (forall ((?v0 S9) (?v1 S9) (?v2 S9)) (let ((?v_1 (f38 f39 ?v0)) (?v_0 (f38 f39 ?v1))) (= (f37 ?v_1 (f37 ?v_0 ?v2)) (f37 ?v_0 (f37 ?v_1 ?v2))))))
(assert (forall ((?v0 S3) (?v1 S3) (?v2 S3)) (let ((?v_1 (f20 f21 ?v0)) (?v_0 (f20 f21 ?v1))) (= (f19 ?v_1 (f19 ?v_0 ?v2)) (f19 ?v_0 (f19 ?v_1 ?v2))))))
(assert (forall ((?v0 S2) (?v1 S2) (?v2 S2)) (let ((?v_1 (f23 f24 ?v0)) (?v_0 (f23 f24 ?v1))) (= (f22 ?v_1 (f22 ?v_0 ?v2)) (f22 ?v_0 (f22 ?v_1 ?v2))))))
(assert (forall ((?v0 S8) (?v1 S8) (?v2 S8)) (let ((?v_0 (f42 f43 ?v0))) (= (f41 ?v_0 (f41 (f42 f43 ?v1) ?v2)) (f41 (f42 f43 (f41 ?v_0 ?v1)) ?v2)))))
(assert (forall ((?v0 S9) (?v1 S9) (?v2 S9)) (let ((?v_0 (f38 f39 ?v0))) (= (f37 ?v_0 (f37 (f38 f39 ?v1) ?v2)) (f37 (f38 f39 (f37 ?v_0 ?v1)) ?v2)))))
(assert (forall ((?v0 S3) (?v1 S3) (?v2 S3)) (let ((?v_0 (f20 f21 ?v0))) (= (f19 ?v_0 (f19 (f20 f21 ?v1) ?v2)) (f19 (f20 f21 (f19 ?v_0 ?v1)) ?v2)))))
(assert (forall ((?v0 S2) (?v1 S2) (?v2 S2)) (let ((?v_0 (f23 f24 ?v0))) (= (f22 ?v_0 (f22 (f23 f24 ?v1) ?v2)) (f22 (f23 f24 (f22 ?v_0 ?v1)) ?v2)))))
(assert (forall ((?v0 S8) (?v1 S8) (?v2 S8)) (let ((?v_0 (f42 f43 ?v0))) (= (f41 (f42 f43 (f41 ?v_0 ?v1)) ?v2) (f41 ?v_0 (f41 (f42 f43 ?v1) ?v2))))))
(assert (forall ((?v0 S9) (?v1 S9) (?v2 S9)) (let ((?v_0 (f38 f39 ?v0))) (= (f37 (f38 f39 (f37 ?v_0 ?v1)) ?v2) (f37 ?v_0 (f37 (f38 f39 ?v1) ?v2))))))
(assert (forall ((?v0 S3) (?v1 S3) (?v2 S3)) (let ((?v_0 (f20 f21 ?v0))) (= (f19 (f20 f21 (f19 ?v_0 ?v1)) ?v2) (f19 ?v_0 (f19 (f20 f21 ?v1) ?v2))))))
(assert (forall ((?v0 S2) (?v1 S2) (?v2 S2)) (let ((?v_0 (f23 f24 ?v0))) (= (f22 (f23 f24 (f22 ?v_0 ?v1)) ?v2) (f22 ?v_0 (f22 (f23 f24 ?v1) ?v2))))))
(assert (forall ((?v0 S8) (?v1 S8) (?v2 S8)) (let ((?v_0 (f42 f43 ?v0))) (= (f41 (f42 f43 (f41 ?v_0 ?v1)) ?v2) (f41 (f42 f43 (f41 ?v_0 ?v2)) ?v1)))))
(assert (forall ((?v0 S9) (?v1 S9) (?v2 S9)) (let ((?v_0 (f38 f39 ?v0))) (= (f37 (f38 f39 (f37 ?v_0 ?v1)) ?v2) (f37 (f38 f39 (f37 ?v_0 ?v2)) ?v1)))))
(assert (forall ((?v0 S3) (?v1 S3) (?v2 S3)) (let ((?v_0 (f20 f21 ?v0))) (= (f19 (f20 f21 (f19 ?v_0 ?v1)) ?v2) (f19 (f20 f21 (f19 ?v_0 ?v2)) ?v1)))))
(assert (forall ((?v0 S2) (?v1 S2) (?v2 S2)) (let ((?v_0 (f23 f24 ?v0))) (= (f22 (f23 f24 (f22 ?v_0 ?v1)) ?v2) (f22 (f23 f24 (f22 ?v_0 ?v2)) ?v1)))))
(assert (forall ((?v0 S8) (?v1 S8) (?v2 S8) (?v3 S8)) (let ((?v_0 (f42 f43 ?v0))) (= (f41 (f42 f43 (f41 ?v_0 ?v1)) (f41 (f42 f43 ?v2) ?v3)) (f41 (f42 f43 (f41 ?v_0 ?v2)) (f41 (f42 f43 ?v1) ?v3))))))
(assert (forall ((?v0 S9) (?v1 S9) (?v2 S9) (?v3 S9)) (let ((?v_0 (f38 f39 ?v0))) (= (f37 (f38 f39 (f37 ?v_0 ?v1)) (f37 (f38 f39 ?v2) ?v3)) (f37 (f38 f39 (f37 ?v_0 ?v2)) (f37 (f38 f39 ?v1) ?v3))))))
(assert (forall ((?v0 S3) (?v1 S3) (?v2 S3) (?v3 S3)) (let ((?v_0 (f20 f21 ?v0))) (= (f19 (f20 f21 (f19 ?v_0 ?v1)) (f19 (f20 f21 ?v2) ?v3)) (f19 (f20 f21 (f19 ?v_0 ?v2)) (f19 (f20 f21 ?v1) ?v3))))))
(assert (forall ((?v0 S2) (?v1 S2) (?v2 S2) (?v3 S2)) (let ((?v_0 (f23 f24 ?v0))) (= (f22 (f23 f24 (f22 ?v_0 ?v1)) (f22 (f23 f24 ?v2) ?v3)) (f22 (f23 f24 (f22 ?v_0 ?v2)) (f22 (f23 f24 ?v1) ?v3))))))
(assert (forall ((?v0 S2) (?v1 S2)) (= (f22 (f23 f35 ?v0) ?v1) (f22 (f23 f35 ?v1) ?v0))))
(assert (forall ((?v0 S2) (?v1 S2) (?v2 S2)) (let ((?v_0 (f23 f35 ?v0))) (= (f22 (f23 f35 (f22 ?v_0 ?v1)) ?v2) (f22 ?v_0 (f22 (f23 f35 ?v1) ?v2))))))
(assert (forall ((?v0 S2) (?v1 S2) (?v2 S2)) (let ((?v_0 (f23 f35 ?v0))) (=> (not (= ?v0 f17)) (= (= (f22 ?v_0 ?v1) (f22 ?v_0 ?v2)) (= ?v1 ?v2))))))
(assert (forall ((?v0 S2) (?v1 S2) (?v2 S2)) (=> (not (= ?v0 f17)) (= (= (f22 (f23 f35 ?v1) ?v0) (f22 (f23 f35 ?v2) ?v0)) (= ?v1 ?v2)))))
(assert (forall ((?v0 S2) (?v1 S2) (?v2 S3)) (let ((?v_1 (f33 f34 ?v0)) (?v_0 (f33 f34 ?v1))) (= (f19 ?v_1 (f19 ?v_0 ?v2)) (f19 ?v_0 (f19 ?v_1 ?v2))))))
(assert (forall ((?v0 S2) (?v1 S2) (?v2 S2)) (let ((?v_1 (f23 f47 ?v0)) (?v_0 (f23 f47 ?v1))) (= (f22 ?v_1 (f22 ?v_0 ?v2)) (f22 ?v_0 (f22 ?v_1 ?v2))))))
(assert (forall ((?v0 S2) (?v1 S2) (?v2 S3)) (let ((?v_1 (f33 f34 ?v0)) (?v_0 (f33 f34 ?v1))) (= (f19 ?v_1 (f19 ?v_0 ?v2)) (f19 ?v_0 (f19 ?v_1 ?v2))))))
(assert (forall ((?v0 S2) (?v1 S2) (?v2 S2)) (let ((?v_1 (f23 f47 ?v0)) (?v_0 (f23 f47 ?v1))) (= (f22 ?v_1 (f22 ?v_0 ?v2)) (f22 ?v_0 (f22 ?v_1 ?v2))))))
(assert (forall ((?v0 S2) (?v1 S2) (?v2 S3)) (let ((?v_1 (f33 f34 ?v0)) (?v_0 (f33 f34 ?v1))) (= (f19 ?v_1 (f19 ?v_0 ?v2)) (f19 ?v_0 (f19 ?v_1 ?v2))))))
(assert (forall ((?v0 S2) (?v1 S2) (?v2 S2)) (let ((?v_1 (f23 f47 ?v0)) (?v_0 (f23 f47 ?v1))) (= (f22 ?v_1 (f22 ?v_0 ?v2)) (f22 ?v_0 (f22 ?v_1 ?v2))))))
(assert (forall ((?v0 S2) (?v1 S2) (?v2 S3)) (= (f19 (f33 f34 (f22 (f23 f47 ?v0) ?v1)) ?v2) (f19 (f33 f34 ?v0) (f19 (f33 f34 ?v1) ?v2)))))
(assert (forall ((?v0 S2) (?v1 S2) (?v2 S2)) (let ((?v_0 (f23 f47 ?v0))) (= (f22 (f23 f47 (f22 ?v_0 ?v1)) ?v2) (f22 ?v_0 (f22 (f23 f47 ?v1) ?v2))))))
(assert (forall ((?v0 S2) (?v1 S2) (?v2 S3)) (= (f19 (f33 f34 (f22 (f23 f47 ?v0) ?v1)) ?v2) (f19 (f33 f34 ?v0) (f19 (f33 f34 ?v1) ?v2)))))
(assert (forall ((?v0 S2) (?v1 S2) (?v2 S2)) (let ((?v_0 (f23 f47 ?v0))) (= (f22 (f23 f47 (f22 ?v_0 ?v1)) ?v2) (f22 ?v_0 (f22 (f23 f47 ?v1) ?v2))))))
(assert (forall ((?v0 S2) (?v1 S3) (?v2 S3)) (let ((?v_0 (f33 f34 ?v0))) (=> (not (= ?v0 f17)) (=> (= (f19 ?v_0 ?v1) (f19 ?v_0 ?v2)) (= ?v1 ?v2))))))
(assert (forall ((?v0 S2) (?v1 S2) (?v2 S2)) (let ((?v_0 (f23 f47 ?v0))) (=> (not (= ?v0 f17)) (=> (= (f22 ?v_0 ?v1) (f22 ?v_0 ?v2)) (= ?v1 ?v2))))))
(assert (forall ((?v0 S2) (?v1 S3) (?v2 S3)) (let ((?v_0 (f33 f34 ?v0))) (= (= (f19 ?v_0 ?v1) (f19 ?v_0 ?v2)) (or (= ?v1 ?v2) (= ?v0 f17))))))
(assert (forall ((?v0 S2) (?v1 S2) (?v2 S2)) (let ((?v_0 (f23 f47 ?v0))) (= (= (f22 ?v_0 ?v1) (f22 ?v_0 ?v2)) (or (= ?v1 ?v2) (= ?v0 f17))))))
(assert (forall ((?v0 S3) (?v1 S3)) (= (f8 f9 (f19 (f20 f46 ?v0) ?v1)) (f22 (f23 f24 (f22 (f23 f35 (f8 f10 ?v0)) (f8 f9 ?v1))) (f22 (f23 f35 (f8 f9 ?v0)) (f8 f10 ?v1))))))
(assert (forall ((?v0 S9)) (= (f37 (f38 f45 f15) ?v0) f15)))
(assert (forall ((?v0 S8)) (= (f41 (f42 f44 f13) ?v0) f13)))
(assert (forall ((?v0 S3)) (= (f19 (f20 f46 f16) ?v0) f16)))
(assert (forall ((?v0 S2)) (= (f22 (f23 f35 f17) ?v0) f17)))
(assert (forall ((?v0 S3)) (= (f19 (f20 f46 f16) ?v0) f16)))
(assert (forall ((?v0 S2)) (= (f22 (f23 f35 f17) ?v0) f17)))
(assert (forall ((?v0 S3)) (= (f19 (f20 f46 f16) ?v0) f16)))
(assert (forall ((?v0 S2)) (= (f22 (f23 f35 f17) ?v0) f17)))
(assert (forall ((?v0 S9)) (= (f37 (f38 f45 ?v0) f15) f15)))
(assert (forall ((?v0 S8)) (= (f41 (f42 f44 ?v0) f13) f13)))
(assert (forall ((?v0 S3)) (= (f19 (f20 f46 ?v0) f16) f16)))
(assert (forall ((?v0 S2)) (= (f22 (f23 f35 ?v0) f17) f17)))
(assert (forall ((?v0 S3)) (= (f19 (f20 f46 ?v0) f16) f16)))
(assert (forall ((?v0 S2)) (= (f22 (f23 f35 ?v0) f17) f17)))
(assert (forall ((?v0 S3)) (= (f19 (f20 f46 ?v0) f16) f16)))
(assert (forall ((?v0 S2)) (= (f22 (f23 f35 ?v0) f17) f17)))
(assert (forall ((?v0 S9)) (= (f37 (f38 f39 f15) ?v0) ?v0)))
(assert (forall ((?v0 S8)) (= (f41 (f42 f43 f13) ?v0) ?v0)))
(assert (forall ((?v0 S3)) (= (f19 (f20 f21 f16) ?v0) ?v0)))
(assert (forall ((?v0 S2)) (= (f22 (f23 f24 f17) ?v0) ?v0)))
(assert (forall ((?v0 S9)) (= (f37 (f38 f39 ?v0) f15) ?v0)))
(assert (forall ((?v0 S8)) (= (f41 (f42 f43 ?v0) f13) ?v0)))
(assert (forall ((?v0 S3)) (= (f19 (f20 f21 ?v0) f16) ?v0)))
(assert (forall ((?v0 S2)) (= (f22 (f23 f24 ?v0) f17) ?v0)))
(check-sat)
(exit)
